MKP10 Results:
BPSO1 Results:
7579 7960 8042 8042 8046 8118 8158 8158 8158 8294 8294 8294 8294 8294 8294 8294 8294 8294 8294 8294 8302 8302 8302 8302 8302 8302 8302 8302 8302 8302 8302 8302 8302 8302 8302 8302 8302 8302 8302 8302
7905 8003 8225 8234 8234 8366 8366 8366 8366 8366 8366 8366 8366 8366 8366 8366 8366 8366 8366 8366 8366 8366 8366 8366 8366 8366 8366 8366 8366 8366 8366 8366 8366 8366 8366 8366 8366 8366 8366 8366
7992 8133 8250 8250 8250 8250 8289 8289 8289 8289 8289 8289 8343 8343 8343 8343 8343 8343 8343 8343 8343 8343 8343 8343 8343 8343 8343 8343 8343 8343 8343 8343 8343 8343 8343 8343 8343 8343 8343 8343
7951 7971 7987 7987 8017 8017 8062 8176 8176 8176 8182 8275 8275 8275 8275 8275 8275 8275 8275 8275 8275 8275 8275 8275 8275 8275 8275 8275 8275 8275 8275 8275 8275 8275 8275 8275 8275 8275 8275 8275
7735 7892 8123 8123 8153 8153 8314 8314 8334 8334 8334 8334 8334 8334 8334 8334 8334 8334 8334 8334 8334 8334 8334 8334 8334 8334 8334 8334 8334 8334 8334 8334 8334 8334 8334 8334 8334 8334 8334 8334
7650 8000 8173 8173 8199 8220 8220 8220 8220 8220 8241 8241 8241 8241 8241 8241 8241 8241 8241 8241 8241 8241 8241 8241 8241 8241 8241 8241 8241 8241 8241 8241 8241 8241 8241 8241 8241 8241 8241 8241
7556 8067 8169 8169 8207 8273 8356 8356 8356 8356 8356 8356 8356 8356 8356 8356 8356 8356 8356 8356 8356 8356 8356 8356 8356 8356 8356 8356 8356 8425 8425 8425 8425 8425 8425 8425 8425 8425 8425 8425
7714 7860 8134 8158 8158 8158 8158 8158 8249 8249 8249 8249 8249 8249 8249 8249 8249 8249 8249 8249 8249 8249 8249 8249 8249 8249 8249 8249 8249 8249 8249 8249 8249 8249 8249 8249 8249 8249 8249 8249
7959 8245 8245 8298 8298 8298 8298 8302 8302 8302 8302 8302 8302 8302 8302 8302 8302 8302 8302 8302 8302 8302 8302 8302 8302 8302 8302 8302 8302 8302 8302 8302 8302 8302 8302 8302 8302 8302 8302 8302
7982 8209 8209 8209 8209 8209 8209 8209 8209 8209 8209 8209 8209 8209 8209 8209 8209 8209 8209 8209 8209 8342 8342 8342 8342 8342 8342 8342 8342 8342 8342 8342 8342 8342 8342 8342 8342 8342 8342 8342
7692 7961 8175 8250 8250 8271 8271 8271 8343 8366 8366 8366 8366 8366 8366 8366 8366 8366 8366 8366 8366 8366 8366 8366 8366 8366 8366 8366 8366 8366 8366 8366 8366 8366 8366 8366 8366 8366 8366 8366
8035 8055 8250 8250 8250 8250 8250 8250 8396 8396 8396 8396 8396 8396 8396 8396 8396 8396 8396 8396 8396 8396 8396 8396 8396 8396 8396 8396 8396 8396 8396 8396 8396 8396 8396 8396 8396 8396 8396 8396
7994 8254 8254 8254 8337 8337 8337 8337 8337 8337 8337 8337 8337 8337 8337 8337 8337 8337 8337 8337 8337 8337 8337 8337 8337 8337 8337 8337 8337 8337 8337 8337 8337 8337 8337 8337 8337 8337 8337 8337
7720 8281 8281 8325 8325 8325 8325 8325 8325 8325 8325 8325 8325 8325 8345 8345 8345 8345 8345 8345 8345 8345 8345 8345 8345 8345 8345 8345 8345 8345 8345 8345 8345 8345 8345 8345 8345 8345 8345 8345
8145 8161 8291 8291 8291 8291 8341 8341 8341 8341 8341 8341 8341 8341 8341 8341 8341 8341 8341 8341 8341 8341 8341 8341 8341 8341 8341 8341 8341 8341 8341 8341 8341 8341 8341 8341 8341 8341 8341 8341
8216 8216 8216 8219 8219 8219 8219 8219 8219 8219 8219 8272 8272 8272 8272 8272 8317 8317 8317 8317 8317 8317 8317 8317 8317 8317 8317 8317 8317 8317 8317 8317 8317 8317 8317 8317 8317 8317 8317 8317
8108 8268 8313 8313 8313 8313 8313 8313 8313 8313 8313 8313 8313 8313 8313 8313 8313 8313 8313 8313 8313 8313 8313 8313 8313 8313 8313 8313 8313 8313 8313 8313 8313 8313 8313 8313 8313 8313 8313 8313
8095 8148 8148 8148 8205 8205 8205 8205 8205 8205 8353 8353 8353 8353 8353 8353 8353 8353 8353 8353 8353 8353 8353 8353 8353 8353 8353 8353 8353 8353 8353 8353 8353 8353 8353 8353 8353 8353 8353 8353
8032 8048 8211 8211 8211 8220 8256 8389 8389 8389 8389 8389 8389 8389 8389 8389 8389 8389 8389 8389 8389 8389 8389 8389 8389 8389 8389 8389 8389 8389 8389 8389 8389 8389 8389 8389 8389 8389 8389 8389
8014 8150 8307 8307 8334 8334 8334 8334 8401 8401 8401 8401 8401 8401 8401 8401 8401 8401 8401 8401 8401 8401 8401 8401 8401 8401 8401 8401 8401 8401 8401 8401 8401 8401 8401 8401 8401 8401 8401 8401
7985 8164 8251 8251 8339 8339 8339 8339 8339 8339 8339 8339 8428 8428 8428 8428 8428 8428 8428 8428 8428 8428 8428 8428 8428 8428 8428 8428 8428 8428 8428 8428 8428 8428 8428 8428 8428 8428 8428 8428
7674 8204 8238 8247 8255 8326 8326 8326 8326 8326 8326 8326 8326 8326 8326 8326 8326 8326 8326 8326 8326 8326 8326 8326 8326 8326 8326 8326 8326 8326 8326 8326 8326 8326 8326 8326 8326 8326 8326 8326
7964 7983 7983 8060 8200 8200 8200 8200 8200 8200 8200 8200 8200 8200 8200 8200 8200 8200 8200 8200 8200 8200 8200 8200 8200 8200 8200 8200 8200 8200 8200 8200 8200 8200 8200 8200 8200 8200 8200 8200
7632 7871 8329 8329 8384 8384 8384 8384 8384 8384 8384 8384 8384 8384 8384 8384 8384 8384 8384 8384 8384 8384 8384 8384 8384 8384 8384 8384 8384 8384 8384 8384 8384 8384 8384 8384 8384 8384 8384 8384
7547 8078 8257 8257 8287 8343 8343 8343 8343 8343 8343 8343 8343 8343 8343 8343 8343 8343 8343 8343 8343 8343 8343 8343 8343 8343 8343 8343 8343 8343 8343 8343 8343 8343 8343 8343 8343 8343 8343 8343
7573 8037 8161 8276 8276 8276 8276 8276 8276 8276 8276 8276 8276 8276 8276 8276 8276 8276 8276 8276 8276 8276 8276 8276 8276 8276 8276 8276 8276 8276 8276 8276 8276 8276 8276 8276 8276 8276 8276 8276
7842 8010 8094 8334 8334 8334 8380 8380 8380 8380 8380 8380 8380 8380 8380 8380 8380 8380 8380 8380 8380 8380 8380 8380 8380 8380 8380 8380 8380 8380 8380 8380 8380 8380 8380 8380 8380 8380 8380 8380
7882 8127 8271 8294 8294 8294 8294 8294 8294 8294 8294 8294 8294 8294 8294 8294 8294 8294 8294 8294 8294 8294 8294 8294 8294 8294 8294 8294 8294 8294 8294 8294 8294 8294 8294 8294 8294 8294 8294 8294
7813 8016 8289 8289 8289 8289 8289 8289 8289 8290 8290 8290 8290 8290 8290 8342 8342 8342 8342 8342 8342 8342 8342 8342 8342 8342 8342 8342 8342 8342 8342 8342 8342 8342 8342 8342 8342 8342 8342 8342
8009 8128 8236 8236 8353 8353 8353 8353 8353 8385 8385 8385 8385 8385 8385 8385 8385 8385 8385 8385 8385 8385 8385 8385 8385 8385 8385 8385 8385 8385 8385 8385 8385 8385 8385 8385 8385 8385 8385 8385

GA1 Results:
8067 8238 8345 8438 8538 8538 8538 8538 8556 8556 8560 8590 8609 8609 8632 8638 8638 8645 8689 8689 8689 8689 8689 8689 8689 8689 8689 8689 8689 8689 8689 8689 8689 8689 8689 8689 8689 8689 8689 8689
7918 8232 8260 8321 8380 8418 8468 8468 8468 8557 8575 8628 8628 8628 8629 8629 8634 8684 8684 8684 8684 8684 8684 8684 8684 8693 8693 8693 8693 8693 8693 8693 8693 8693 8693 8693 8693 8693 8693 8693
7664 8099 8179 8234 8318 8434 8434 8434 8442 8468 8543 8543 8543 8584 8613 8613 8613 8613 8613 8620 8632 8632 8672 8678 8678 8685 8685 8685 8685 8685 8685 8685 8685 8685 8685 8685 8685 8685 8685 8685
7872 8281 8424 8469 8469 8477 8477 8532 8532 8532 8621 8621 8621 8684 8689 8693 8693 8693 8722 8722 8722 8722 8722 8722 8722 8722 8722 8722 8722 8722 8722 8722 8722 8722 8722 8722 8722 8722 8722 8722
7865 8336 8431 8496 8496 8506 8510 8510 8597 8607 8607 8607 8607 8607 8607 8630 8630 8630 8646 8669 8669 8669 8676 8676 8676 8676 8676 8676 8695 8695 8695 8697 8703 8703 8703 8703 8703 8703 8703 8703
7549 8340 8376 8428 8447 8553 8553 8553 8589 8589 8631 8631 8631 8631 8631 8631 8652 8652 8652 8652 8652 8652 8674 8674 8674 8674 8674 8674 8674 8674 8674 8674 8674 8674 8674 8674 8674 8674 8674 8674
7768 8081 8268 8453 8453 8463 8499 8543 8564 8564 8582 8582 8594 8601 8601 8612 8646 8659 8675 8675 8675 8675 8675 8675 8675 8686 8686 8715 8715 8715 8715 8715 8715 8715 8715 8715 8715 8715 8715 8715
7962 8319 8408 8408 8494 8531 8531 8647 8647 8647 8647 8647 8651 8651 8651 8651 8667 8667 8667 8667 8667 8667 8667 8673 8673 8673 8673 8673 8673 8673 8673 8673 8673 8673 8673 8673 8673 8673 8673 8673
7785 8104 8365 8382 8455 8533 8537 8537 8537 8599 8599 8599 8599 8628 8634 8634 8634 8634 8634 8634 8634 8640 8641 8650 8650 8650 8650 8650 8650 8650 8650 8650 8650 8650 8650 8656 8668 8689 8689 8689
7783 8087 8395 8395 8451 8497 8497 8537 8553 8599 8599 8599 8599 8621 8641 8641 8641 8669 8683 8683 8698 8698 8698 8698 8698 8698 8698 8698 8700 8700 8700 8700 8700 8700 8700 8700 8700 8700 8700 8700
7867 8156 8226 8359 8382 8511 8511 8561 8561 8561 8573 8573 8599 8599 8614 8614 8643 8643 8662 8662 8662 8688 8688 8688 8695 8701 8701 8701 8701 8701 8701 8701 8701 8701 8701 8703 8703 8703 8703 8703
7817 8214 8214 8271 8361 8548 8578 8667 8667 8667 8676 8676 8676 8676 8676 8676 8699 8699 8699 8706 8706 8706 8706 8706 8706 8706 8706 8706 8706 8706 8706 8706 8706 8706 8706 8706 8706 8706 8706 8706
8136 8136 8332 8415 8415 8430 8453 8587 8587 8587 8587 8625 8625 8625 8625 8625 8665 8665 8665 8665 8673 8673 8679 8679 8679 8679 8679 8679 8679 8679 8688 8688 8688 8688 8688 8688 8688 8688 8688 8693
7711 8207 8274 8346 8488 8557 8557 8557 8596 8596 8596 8617 8617 8623 8631 8640 8652 8652 8652 8664 8673 8673 8677 8677 8677 8677 8677 8677 8677 8677 8677 8677 8677 8677 8678 8678 8678 8678 8678 8678
7878 8174 8290 8385 8445 8471 8471 8471 8492 8549 8606 8606 8606 8606 8606 8620 8639 8671 8671 8671 8675 8700 8700 8700 8700 8700 8700 8700 8700 8700 8700 8700 8700 8700 8700 8700 8700 8700 8700 8700
7823 8064 8381 8381 8443 8460 8543 8543 8589 8589 8608 8608 8642 8671 8671 8671 8674 8674 8674 8674 8674 8674 8697 8697 8697 8698 8698 8698 8698 8698 8698 8698 8698 8698 8698 8698 8698 8698 8698 8698
7836 8002 8193 8258 8314 8346 8386 8454 8462 8462 8484 8585 8585 8599 8599 8599 8599 8643 8643 8654 8696 8696 8696 8696 8696 8696 8703 8703 8703 8703 8703 8703 8703 8703 8703 8703 8703 8703 8703 8703
7918 8133 8377 8377 8377 8447 8447 8456 8557 8557 8557 8557 8557 8576 8615 8615 8615 8616 8619 8659 8684 8684 8688 8688 8701 8701 8701 8701 8701 8701 8701 8701 8701 8701 8701 8701 8701 8701 8701 8701
8003 8330 8330 8452 8452 8486 8486 8610 8623 8623 8623 8623 8650 8688 8688 8694 8694 8694 8694 8694 8694 8694 8694 8694 8701 8701 8701 8701 8701 8701 8701 8701 8701 8701 8701 8701 8701 8701 8701 8701
7868 8029 8339 8339 8383 8466 8487 8556 8556 8556 8556 8570 8570 8623 8623 8663 8663 8663 8676 8676 8676 8676 8688 8688 8688 8688 8688 8688 8721 8721 8721 8721 8721 8721 8721 8721 8721 8721 8721 8721
7694 8082 8362 8430 8430 8480 8480 8481 8548 8548 8585 8585 8620 8620 8620 8620 8620 8634 8695 8695 8721 8721 8721 8721 8721 8721 8721 8721 8721 8721 8721 8721 8721 8721 8721 8721 8721 8721 8721 8721
7948 8280 8301 8341 8399 8533 8533 8554 8554 8554 8609 8625 8626 8626 8634 8634 8660 8660 8666 8681 8681 8698 8698 8698 8699 8699 8699 8699 8699 8699 8703 8703 8709 8709 8709 8709 8709 8709 8709 8709
7788 8217 8255 8341 8449 8460 8480 8537 8537 8555 8555 8555 8558 8608 8654 8656 8656 8674 8674 8674 8676 8681 8681 8701 8701 8701 8701 8701 8701 8701 8701 8701 8701 8701 8701 8701 8701 8701 8701 8701
7390 8103 8201 8372 8421 8500 8500 8555 8555 8555 8572 8593 8593 8631 8639 8666 8679 8679 8679 8679 8679 8679 8679 8679 8679 8679 8679 8679 8679 8679 8679 8679 8679 8679 8679 8679 8679 8679 8679 8679
8021 8175 8344 8443 8542 8542 8542 8542 8542 8542 8567 8606 8606 8609 8609 8659 8672 8672 8681 8681 8681 8681 8681 8681 8681 8681 8681 8681 8681 8681 8681 8681 8681 8681 8681 8681 8681 8681 8681 8681
7912 8195 8265 8326 8500 8500 8500 8500 8553 8553 8573 8573 8594 8647 8647 8653 8653 8653 8653 8653 8653 8675 8675 8722 8722 8722 8722 8722 8722 8722 8722 8722 8722 8722 8722 8722 8722 8722 8722 8722
7875 8161 8346 8346 8380 8395 8418 8437 8509 8547 8547 8559 8561 8625 8639 8639 8678 8678 8678 8678 8678 8699 8706 8706 8706 8706 8706 8706 8706 8706 8706 8706 8706 8706 8706 8706 8706 8706 8706 8706
8098 8238 8238 8457 8457 8509 8509 8532 8623 8626 8626 8626 8626 8626 8626 8675 8675 8675 8675 8675 8675 8675 8675 8675 8675 8675 8675 8675 8675 8675 8675 8675 8675 8675 8683 8689 8689 8689 8689 8689
7794 8273 8289 8351 8473 8473 8501 8569 8569 8577 8615 8615 8675 8675 8675 8675 8675 8675 8675 8675 8697 8697 8697 8697 8697 8697 8697 8697 8697 8697 8697 8697 8697 8697 8697 8697 8697 8697 8697 8697
8123 8340 8391 8391 8423 8551 8551 8591 8591 8591 8614 8614 8614 8614 8614 8650 8668 8670 8696 8696 8701 8701 8701 8701 8701 8703 8703 8703 8703 8703 8703 8703 8703 8703 8703 8703 8703 8703 8703 8703

BPSO2 Results:
8023 8151 8195 8195 8250 8293 8293 8293 8293 8293 8293 8293 8293 8293 8293 8293 8293 8293 8293 8293 8293 8293 8293 8293 8293 8293 8293 8293 8293 8293 8293 8293 8293 8293 8293 8293 8293 8293 8293 8293
7508 8299 8299 8299 8299 8299 8299 8299 8299 8299 8299 8299 8299 8299 8391 8391 8391 8391 8391 8391 8391 8391 8391 8391 8391 8391 8391 8391 8391 8391 8391 8391 8391 8391 8391 8391 8391 8391 8391 8391
7797 8195 8454 8454 8454 8454 8454 8454 8454 8454 8454 8454 8454 8454 8454 8454 8454 8454 8454 8454 8454 8454 8454 8454 8454 8454 8454 8454 8454 8454 8454 8454 8454 8454 8454 8454 8454 8454 8454 8454
7930 8235 8387 8454 8454 8454 8454 8454 8454 8454 8454 8454 8454 8454 8454 8454 8454 8454 8454 8454 8454 8454 8454 8454 8454 8454 8454 8454 8454 8454 8454 8454 8454 8454 8454 8454 8454 8454 8454 8454
8094 8095 8169 8209 8209 8318 8318 8318 8318 8318 8318 8318 8318 8318 8318 8318 8318 8318 8318 8318 8318 8318 8318 8318 8318 8318 8318 8318 8318 8318 8318 8318 8318 8318 8318 8318 8318 8318 8318 8318
7921 7988 8212 8212 8219 8219 8288 8288 8288 8288 8288 8288 8288 8288 8288 8288 8288 8288 8288 8288 8288 8288 8288 8288 8288 8288 8288 8288 8288 8288 8288 8288 8288 8288 8288 8288 8288 8288 8288 8288
7684 8178 8212 8232 8232 8232 8232 8232 8232 8232 8232 8232 8232 8232 8232 8232 8232 8232 8232 8232 8232 8232 8232 8232 8232 8232 8232 8232 8232 8232 8232 8232 8232 8232 8232 8232 8232 8232 8232 8232
8258 8258 8258 8292 8292 8292 8292 8292 8292 8292 8292 8297 8297 8297 8297 8297 8297 8297 8297 8297 8297 8297 8297 8297 8297 8297 8297 8297 8297 8297 8297 8297 8297 8297 8297 8297 8297 8297 8297 8297
7797 8117 8202 8202 8202 8397 8426 8426 8426 8426 8426 8426 8426 8426 8426 8426 8426 8426 8426 8426 8426 8426 8426 8426 8426 8426 8426 8426 8426 8426 8426 8426 8426 8426 8426 8426 8426 8426 8426 8426
7818 8076 8076 8076 8076 8076 8076 8076 8109 8292 8292 8292 8292 8292 8292 8292 8292 8292 8292 8292 8292 8292 8292 8292 8292 8292 8292 8292 8292 8292 8292 8292 8353 8353 8353 8353 8353 8353 8353 8353
7758 8049 8342 8342 8342 8342 8342 8342 8342 8342 8342 8342 8342 8342 8342 8342 8342 8342 8342 8342 8342 8342 8342 8342 8342 8342 8342 8342 8342 8342 8342 8342 8342 8342 8342 8342 8342 8342 8342 8342
7830 8052 8151 8151 8151 8151 8151 8151 8151 8196 8240 8240 8240 8240 8240 8240 8240 8240 8240 8240 8271 8271 8271 8271 8271 8271 8271 8271 8271 8271 8271 8271 8271 8271 8271 8271 8271 8271 8271 8271
7948 8150 8303 8303 8303 8303 8303 8303 8303 8303 8303 8303 8303 8303 8303 8303 8303 8303 8303 8303 8303 8303 8303 8303 8303 8303 8303 8303 8303 8303 8303 8303 8303 8303 8303 8303 8303 8303 8303 8303
8090 8205 8205 8205 8205 8205 8205 8205 8205 8205 8205 8205 8205 8205 8205 8205 8205 8205 8205 8205 8205 8205 8205 8205 8205 8205 8256 8256 8256 8256 8256 8256 8256 8256 8256 8256 8256 8256 8256 8256
7790 8107 8273 8273 8319 8319 8319 8379 8413 8413 8413 8413 8413 8413 8413 8413 8413 8413 8413 8413 8413 8413 8413 8413 8413 8413 8413 8413 8413 8413 8413 8413 8413 8413 8413 8413 8413 8413 8413 8413
7834 8105 8135 8222 8222 8222 8238 8238 8238 8238 8238 8238 8238 8238 8238 8238 8238 8301 8301 8301 8301 8301 8301 8301 8301 8301 8301 8301 8301 8301 8301 8301 8301 8301 8301 8301 8301 8301 8301 8301
7993 8103 8115 8317 8317 8317 8317 8343 8343 8343 8343 8343 8343 8350 8350 8350 8350 8350 8350 8350 8350 8350 8350 8350 8350 8350 8350 8350 8350 8350 8350 8350 8350 8350 8350 8350 8350 8350 8350 8350
8381 8381 8381 8381 8381 8381 8381 8381 8427 8427 8427 8427 8427 8427 8427 8427 8427 8427 8427 8427 8427 8427 8427 8427 8427 8427 8427 8427 8427 8427 8427 8427 8427 8427 8427 8427 8427 8427 8427 8427
7577 8099 8147 8321 8321 8321 8321 8321 8321 8321 8321 8356 8356 8356 8356 8374 8374 8374 8374 8374 8374 8374 8374 8374 8374 8374 8374 8374 8374 8374 8374 8374 8374 8374 8374 8374 8374 8374 8374 8374
7664 8170 8205 8225 8225 8225 8225 8225 8225 8225 8269 8269 8269 8269 8269 8269 8331 8331 8331 8331 8331 8331 8331 8331 8331 8331 8331 8331 8331 8331 8331 8331 8331 8331 8331 8331 8331 8331 8331 8331
7510 8232 8232 8232 8232 8232 8232 8232 8232 8232 8232 8232 8232 8232 8232 8232 8232 8232 8232 8232 8232 8232 8232 8232 8232 8232 8232 8232 8232 8232 8232 8232 8232 8232 8232 8232 8232 8232 8232 8232
8083 8405 8405 8405 8448 8448 8448 8448 8448 8448 8448 8448 8448 8448 8448 8448 8448 8448 8448 8448 8448 8448 8448 8448 8448 8448 8448 8448 8448 8448 8448 8448 8448 8448 8448 8448 8448 8448 8448 8448
7482 8072 8200 8200 8246 8246 8246 8246 8246 8246 8246 8246 8246 8246 8246 8246 8246 8246 8246 8246 8246 8246 8246 8246 8246 8246 8246 8246 8246 8246 8246 8246 8246 8246 8246 8246 8246 8246 8246 8246
7773 8061 8139 8139 8232 8232 8232 8232 8277 8277 8277 8277 8277 8277 8277 8277 8277 8277 8277 8277 8322 8322 8322 8322 8322 8322 8322 8322 8322 8322 8322 8322 8322 8322 8322 8322 8322 8322 8322 8322
7821 8060 8062 8342 8350 8350 8350 8350 8382 8382 8382 8382 8382 8382 8382 8382 8382 8382 8382 8382 8382 8382 8382 8382 8382 8382 8382 8382 8382 8382 8382 8382 8382 8382 8382 8382 8382 8382 8382 8382
7722 8051 8265 8265 8265 8265 8265 8265 8265 8265 8320 8320 8320 8320 8320 8320 8320 8320 8320 8320 8320 8320 8320 8320 8320 8320 8320 8320 8320 8320 8320 8320 8320 8320 8320 8320 8320 8320 8320 8320
7941 7988 8153 8349 8349 8349 8349 8349 8349 8349 8349 8349 8349 8349 8349 8349 8349 8349 8349 8349 8349 8349 8349 8349 8349 8349 8349 8349 8349 8349 8349 8349 8349 8349 8349 8349 8349 8349 8349 8349
7749 8161 8169 8247 8247 8247 8247 8247 8247 8247 8247 8247 8247 8247 8247 8247 8247 8247 8247 8247 8247 8247 8247 8247 8247 8247 8247 8247 8247 8247 8247 8247 8247 8247 8247 8247 8247 8247 8247 8247
7834 8175 8188 8188 8188 8188 8188 8188 8188 8188 8188 8240 8240 8240 8240 8241 8241 8308 8308 8308 8308 8308 8308 8308 8308 8308 8308 8308 8308 8308 8308 8308 8308 8308 8308 8308 8308 8308 8308 8308
7705 8186 8186 8186 8186 8186 8186 8227 8245 8245 8245 8245 8245 8245 8245 8245 8245 8245 8245 8245 8245 8245 8245 8245 8245 8245 8245 8245 8245 8245 8245 8245 8245 8245 8245 8245 8245 8245 8245 8245

GA2 Results:
7684 8171 8458 8458 8460 8460 8497 8522 8541 8541 8554 8621 8621 8639 8657 8668 8668 8677 8677 8709 8709 8709 8709 8709 8709 8709 8709 8709 8709 8709 8709 8709 8709 8709 8709 8709 8709 8709 8709 8709
7557 8129 8334 8361 8361 8434 8450 8450 8528 8528 8546 8557 8557 8577 8599 8599 8599 8599 8599 8599 8629 8629 8629 8629 8629 8629 8629 8629 8629 8629 8629 8629 8629 8629 8629 8629 8629 8629 8629 8629
7999 8204 8355 8364 8449 8566 8566 8566 8598 8598 8598 8600 8600 8600 8600 8606 8606 8606 8606 8606 8629 8629 8629 8684 8684 8684 8684 8684 8684 8684 8684 8684 8684 8684 8684 8684 8684 8684 8684 8684
7605 8204 8376 8455 8455 8455 8484 8484 8484 8525 8525 8582 8582 8582 8582 8615 8615 8615 8615 8629 8629 8685 8685 8685 8685 8685 8685 8685 8685 8685 8685 8685 8685 8685 8685 8685 8685 8685 8685 8685
8090 8145 8375 8375 8375 8414 8417 8457 8457 8588 8588 8648 8648 8648 8648 8648 8648 8648 8648 8648 8648 8648 8648 8675 8675 8675 8675 8675 8675 8675 8675 8675 8675 8675 8675 8675 8675 8675 8675 8675
7709 8138 8326 8326 8398 8398 8398 8398 8434 8445 8445 8537 8544 8556 8556 8556 8584 8643 8646 8679 8679 8679 8679 8679 8679 8679 8679 8679 8679 8679 8679 8679 8679 8679 8679 8679 8679 8679 8679 8679
8011 8427 8522 8522 8522 8522 8522 8671 8671 8671 8671 8671 8698 8698 8698 8698 8698 8698 8698 8698 8698 8698 8698 8698 8698 8700 8700 8700 8700 8700 8700 8700 8700 8700 8700 8700 8700 8700 8700 8700
8144 8222 8441 8441 8441 8441 8506 8506 8560 8560 8560 8560 8566 8566 8602 8640 8640 8640 8640 8657 8657 8657 8657 8657 8657 8657 8657 8657 8657 8657 8657 8657 8661 8661 8661 8661 8661 8661 8661 8661
7970 8334 8369 8402 8414 8470 8470 8612 8612 8613 8613 8613 8645 8645 8645 8684 8684 8684 8684 8684 8684 8684 8684 8684 8684 8684 8684 8684 8684 8684 8684 8684 8684 8684 8684 8684 8684 8684 8684 8684
7971 8222 8321 8401 8460 8460 8460 8460 8473 8485 8517 8517 8517 8542 8555 8578 8624 8628 8632 8670 8696 8696 8696 8696 8696 8696 8696 8696 8696 8696 8696 8696 8696 8696 8696 8696 8696 8696 8696 8696
8102 8235 8366 8427 8427 8510 8563 8563 8563 8617 8617 8617 8617 8617 8622 8622 8622 8676 8676 8676 8676 8676 8676 8676 8676 8722 8722 8722 8722 8722 8722 8722 8722 8722 8722 8722 8722 8722 8722 8722
7936 8263 8324 8393 8412 8503 8503 8527 8527 8527 8527 8634 8636 8636 8636 8636 8652 8652 8652 8652 8652 8652 8652 8652 8652 8652 8652 8652 8690 8690 8694 8694 8694 8694 8694 8694 8694 8694 8694 8694
8158 8279 8415 8415 8418 8418 8523 8529 8529 8529 8529 8529 8541 8595 8595 8595 8650 8650 8650 8650 8650 8676 8676 8676 8676 8676 8676 8676 8676 8676 8676 8676 8676 8676 8676 8676 8676 8676 8676 8676
8038 8166 8277 8365 8410 8450 8488 8661 8661 8661 8661 8661 8663 8663 8670 8670 8696 8696 8696 8696 8696 8696 8696 8696 8696 8696 8696 8696 8696 8696 8696 8696 8696 8696 8696 8696 8696 8696 8696 8696
7881 8194 8268 8335 8335 8356 8362 8448 8485 8485 8556 8556 8556 8556 8557 8560 8587 8587 8621 8630 8630 8630 8632 8632 8675 8675 8675 8675 8675 8675 8675 8675 8675 8675 8675 8675 8675 8675 8675 8675
7741 8234 8374 8509 8509 8509 8509 8553 8553 8553 8553 8553 8553 8554 8554 8588 8588 8588 8589 8646 8646 8646 8646 8646 8646 8646 8646 8646 8646 8646 8646 8646 8646 8646 8646 8646 8646 8646 8646 8646
7999 8141 8243 8352 8358 8437 8437 8437 8459 8498 8560 8615 8615 8615 8615 8615 8615 8665 8665 8665 8665 8665 8665 8665 8665 8665 8677 8677 8677 8677 8677 8677 8677 8677 8677 8677 8677 8677 8699 8699
7669 8208 8316 8408 8408 8408 8408 8438 8467 8513 8513 8535 8535 8535 8535 8548 8548 8679 8679 8679 8687 8687 8687 8687 8687 8687 8687 8687 8687 8687 8687 8687 8689 8689 8689 8689 8689 8689 8689 8689
7949 8029 8222 8230 8404 8404 8404 8485 8485 8485 8485 8566 8566 8566 8594 8594 8611 8625 8625 8625 8625 8625 8625 8625 8625 8633 8633 8633 8633 8633 8633 8633 8633 8633 8633 8633 8633 8633 8633 8633
7979 8262 8373 8507 8507 8507 8507 8515 8515 8515 8515 8557 8624 8624 8624 8644 8685 8685 8685 8685 8706 8706 8706 8706 8706 8706 8706 8706 8706 8706 8706 8706 8706 8706 8706 8706 8706 8706 8706 8706
7606 8092 8092 8379 8382 8382 8382 8507 8507 8568 8568 8568 8612 8612 8681 8685 8685 8685 8685 8685 8685 8685 8685 8685 8685 8685 8685 8685 8685 8685 8685 8685 8685 8685 8685 8685 8685 8685 8685 8685
8081 8283 8283 8341 8427 8427 8427 8427 8427 8444 8493 8493 8493 8493 8493 8493 8539 8539 8541 8561 8561 8566 8566 8566 8566 8566 8566 8566 8566 8566 8566 8566 8566 8566 8566 8566 8566 8566 8566 8566
7901 8317 8483 8483 8520 8524 8524 8554 8571 8571 8571 8579 8579 8587 8602 8613 8653 8704 8704 8704 8704 8704 8704 8704 8704 8704 8704 8704 8704 8704 8704 8709 8709 8709 8709 8709 8709 8709 8709 8709
8018 8340 8382 8512 8512 8574 8574 8595 8595 8660 8660 8660 8677 8677 8677 8677 8677 8677 8677 8677 8677 8677 8679 8679 8679 8679 8679 8679 8679 8679 8679 8679 8679 8679 8679 8679 8679 8679 8679 8679
8033 8216 8426 8467 8467 8467 8467 8474 8523 8523 8523 8523 8523 8528 8531 8531 8531 8531 8531 8531 8531 8531 8531 8531 8531 8531 8531 8531 8531 8531 8531 8531 8531 8531 8531 8531 8531 8531 8531 8531
7839 8358 8415 8415 8415 8415 8415 8415 8507 8567 8567 8567 8607 8628 8628 8628 8631 8653 8698 8698 8698 8698 8698 8698 8698 8698 8698 8698 8698 8698 8698 8698 8698 8698 8698 8698 8698 8698 8698 8698
7781 8400 8406 8406 8445 8445 8445 8473 8483 8533 8533 8533 8533 8583 8583 8583 8583 8629 8632 8708 8708 8708 8708 8708 8708 8708 8708 8708 8708 8708 8708 8708 8708 8708 8708 8708 8708 8708 8708 8708
8269 8269 8356 8466 8525 8525 8525 8525 8525 8525 8525 8558 8558 8581 8581 8600 8626 8626 8626 8626 8660 8662 8662 8662 8662 8662 8662 8662 8662 8662 8662 8662 8662 8662 8662 8662 8662 8662 8662 8662
8176 8298 8359 8359 8380 8395 8415 8519 8519 8519 8519 8531 8547 8547 8646 8646 8646 8649 8649 8649 8649 8649 8649 8665 8682 8682 8682 8682 8682 8682 8682 8682 8682 8682 8682 8682 8682 8682 8682 8682
8069 8153 8545 8545 8545 8545 8545 8579 8579 8579 8579 8579 8579 8579 8611 8611 8618 8625 8625 8625 8658 8663 8663 8663 8675 8676 8676 8676 8676 8676 8676 8676 8681 8681 8681 8681 8681 8681 8681 8681

BPSO3 Results:
7798 7798 7955 8096 8096 8160 8160 8160 8160 8160 8160 8160 8160 8191 8191 8191 8191 8191 8191 8232 8232 8232 8232 8232 8232 8232 8232 8232 8232 8232 8232 8232 8232 8232 8232 8232 8232 8232 8232 8232
7143 7915 8086 8086 8086 8086 8190 8190 8190 8190 8190 8190 8190 8190 8190 8190 8190 8190 8190 8190 8190 8190 8190 8190 8190 8190 8190 8190 8190 8190 8190 8190 8190 8190 8190 8190 8190 8190 8190 8190
6974 7839 8276 8276 8276 8276 8276 8318 8318 8318 8318 8318 8366 8366 8366 8366 8366 8366 8366 8366 8366 8366 8366 8366 8366 8366 8366 8366 8366 8366 8366 8366 8366 8366 8366 8366 8366 8366 8366 8366
6738 8166 8268 8268 8268 8268 8268 8268 8268 8268 8268 8268 8268 8268 8268 8268 8268 8268 8268 8268 8268 8268 8268 8268 8268 8268 8268 8268 8268 8268 8268 8268 8268 8268 8268 8268 8268 8268 8268 8268
7262 8193 8193 8193 8193 8193 8193 8193 8208 8208 8208 8208 8236 8236 8236 8236 8236 8236 8236 8236 8236 8236 8236 8236 8236 8236 8236 8236 8236 8236 8236 8236 8236 8236 8236 8236 8236 8236 8236 8236
7799 7933 8265 8265 8265 8265 8265 8265 8265 8265 8265 8265 8265 8265 8265 8265 8265 8265 8265 8265 8265 8265 8265 8265 8265 8265 8265 8265 8265 8265 8265 8265 8265 8265 8265 8265 8265 8265 8265 8265
7175 8105 8105 8105 8108 8108 8131 8131 8131 8131 8131 8131 8131 8131 8165 8165 8165 8165 8165 8165 8165 8165 8165 8165 8165 8165 8165 8165 8165 8165 8165 8165 8165 8165 8165 8165 8214 8214 8214 8214
7187 8046 8046 8046 8152 8152 8152 8152 8152 8152 8152 8152 8152 8152 8152 8196 8196 8196 8196 8196 8196 8196 8196 8196 8196 8196 8196 8196 8196 8196 8196 8196 8196 8196 8196 8196 8196 8196 8196 8196
7486 7840 7840 7965 8039 8127 8280 8280 8280 8280 8280 8280 8280 8280 8321 8321 8321 8321 8321 8321 8321 8321 8321 8321 8321 8321 8321 8321 8321 8321 8321 8321 8321 8321 8321 8321 8321 8321 8321 8321
7825 7937 7937 8054 8097 8214 8214 8256 8256 8256 8256 8256 8256 8256 8256 8256 8256 8256 8256 8256 8256 8256 8256 8256 8256 8256 8256 8256 8256 8256 8256 8256 8256 8256 8256 8256 8256 8256 8256 8256
6925 7486 7889 8200 8293 8293 8293 8293 8293 8293 8293 8293 8293 8293 8293 8293 8293 8293 8293 8293 8293 8293 8293 8293 8293 8293 8293 8293 8293 8293 8293 8293 8293 8293 8293 8293 8293 8293 8293 8293
7505 7549 8148 8148 8148 8148 8148 8148 8148 8153 8153 8412 8412 8412 8412 8412 8412 8412 8412 8412 8412 8412 8412 8412 8412 8412 8412 8412 8412 8412 8412 8412 8412 8412 8412 8412 8412 8412 8412 8412
8067 8067 8067 8067 8067 8067 8139 8139 8176 8176 8233 8233 8233 8233 8233 8233 8233 8233 8233 8233 8233 8279 8279 8332 8332 8332 8332 8332 8332 8332 8332 8332 8332 8332 8332 8332 8332 8332 8332 8332
7570 7995 7995 7995 7995 8007 8007 8007 8062 8062 8062 8062 8062 8062 8062 8062 8062 8062 8062 8062 8062 8065 8065 8065 8065 8065 8065 8065 8065 8065 8065 8065 8065 8065 8065 8065 8065 8065 8065 8065
7499 8065 8178 8209 8209 8209 8209 8209 8209 8209 8209 8209 8209 8209 8209 8209 8209 8209 8209 8209 8209 8209 8209 8209 8209 8209 8209 8209 8209 8209 8209 8209 8209 8209 8209 8209 8209 8209 8209 8209
7266 7855 7913 7986 8210 8210 8210 8210 8210 8210 8210 8210 8210 8210 8210 8210 8210 8210 8210 8210 8227 8227 8227 8227 8227 8227 8227 8227 8227 8227 8227 8227 8227 8227 8227 8227 8227 8227 8227 8227
7298 7816 8168 8168 8168 8168 8233 8251 8251 8251 8251 8271 8271 8271 8271 8271 8271 8271 8271 8271 8271 8271 8332 8332 8332 8332 8332 8332 8332 8332 8332 8332 8332 8332 8332 8332 8332 8332 8332 8332
6963 8053 8053 8053 8053 8053 8175 8175 8175 8175 8175 8175 8175 8187 8187 8187 8187 8187 8187 8187 8187 8187 8187 8187 8187 8187 8187 8187 8187 8187 8187 8216 8216 8216 8216 8216 8216 8216 8216 8216
7393 7589 7965 7971 7971 7971 8084 8139 8139 8139 8139 8162 8162 8179 8179 8179 8179 8179 8179 8179 8179 8179 8179 8179 8179 8179 8179 8179 8179 8179 8179 8179 8179 8179 8179 8179 8179 8179 8179 8179
7151 7821 8029 8029 8089 8089 8089 8089 8089 8089 8089 8089 8089 8089 8089 8089 8182 8182 8182 8182 8182 8182 8182 8182 8182 8182 8182 8182 8182 8182 8182 8182 8182 8182 8182 8182 8182 8182 8182 8182
7368 7661 7768 7845 8017 8037 8186 8206 8206 8206 8206 8206 8206 8206 8206 8206 8206 8206 8206 8206 8206 8206 8206 8206 8206 8206 8206 8206 8206 8206 8206 8206 8206 8206 8206 8206 8206 8206 8206 8206
6901 7726 7978 8011 8025 8025 8102 8102 8102 8102 8102 8201 8201 8201 8201 8201 8201 8201 8201 8205 8205 8205 8205 8205 8205 8205 8205 8205 8205 8205 8205 8205 8285 8285 8285 8285 8285 8285 8285 8285
7650 7998 7998 8066 8066 8074 8191 8191 8191 8191 8191 8191 8191 8191 8191 8191 8191 8191 8191 8191 8191 8191 8191 8191 8191 8191 8191 8191 8191 8191 8191 8191 8191 8191 8191 8191 8191 8191 8191 8191
7337 7819 8277 8277 8277 8277 8277 8277 8277 8277 8277 8277 8277 8277 8277 8277 8277 8277 8277 8277 8277 8277 8277 8277 8277 8277 8277 8277 8277 8277 8277 8277 8277 8277 8277 8277 8277 8277 8277 8277
7195 7734 7958 8104 8116 8116 8116 8116 8116 8116 8116 8116 8116 8116 8116 8116 8116 8116 8116 8116 8116 8116 8116 8116 8219 8227 8227 8227 8227 8227 8227 8227 8227 8227 8227 8227 8227 8227 8227 8227
7653 7687 7934 8074 8074 8074 8074 8074 8074 8074 8074 8074 8074 8074 8074 8112 8112 8112 8152 8152 8152 8152 8152 8152 8152 8152 8152 8152 8152 8152 8152 8152 8152 8152 8152 8152 8152 8152 8152 8152
7677 7951 7993 8033 8183 8183 8183 8183 8183 8183 8183 8183 8183 8183 8183 8183 8274 8274 8274 8274 8274 8274 8274 8274 8274 8274 8274 8274 8274 8274 8274 8274 8274 8274 8274 8274 8274 8323 8323 8323
6909 7642 8013 8037 8037 8037 8037 8367 8367 8367 8367 8367 8367 8367 8367 8367 8367 8367 8367 8367 8367 8367 8367 8367 8367 8367 8367 8367 8367 8367 8367 8367 8367 8367 8367 8367 8367 8367 8367 8367
7251 7566 7951 8071 8071 8071 8071 8071 8217 8217 8217 8217 8217 8217 8217 8217 8217 8217 8217 8217 8217 8217 8217 8217 8217 8217 8303 8303 8303 8303 8303 8303 8303 8303 8303 8303 8303 8303 8303 8303
7528 7676 7951 8032 8032 8032 8038 8074 8074 8145 8145 8145 8145 8216 8216 8216 8216 8216 8216 8216 8216 8216 8216 8216 8216 8216 8216 8216 8216 8216 8216 8216 8216 8216 8216 8216 8216 8216 8216 8216

GA3 Results:
7392 8204 8409 8409 8488 8488 8555 8555 8555 8591 8591 8591 8591 8591 8591 8591 8591 8591 8591 8591 8591 8605 8605 8605 8620 8620 8621 8621 8621 8621 8621 8630 8687 8687 8687 8687 8687 8687 8687 8687
7618 8204 8220 8306 8376 8376 8376 8450 8450 8502 8502 8508 8553 8553 8612 8634 8634 8634 8634 8634 8643 8658 8658 8658 8658 8658 8667 8667 8667 8667 8667 8667 8667 8667 8667 8667 8667 8667 8667 8667
7952 8194 8267 8394 8453 8510 8510 8510 8510 8535 8535 8535 8535 8535 8535 8535 8535 8535 8535 8535 8535 8587 8587 8587 8587 8587 8587 8587 8596 8596 8596 8596 8596 8596 8596 8596 8596 8596 8596 8596
7758 8137 8160 8251 8354 8392 8392 8437 8437 8437 8489 8489 8489 8492 8492 8512 8529 8529 8529 8544 8592 8592 8592 8592 8592 8592 8592 8629 8629 8629 8629 8681 8681 8681 8681 8681 8681 8681 8681 8681
7719 8404 8404 8404 8514 8514 8514 8514 8514 8514 8514 8542 8542 8542 8542 8542 8542 8542 8542 8542 8571 8571 8571 8587 8587 8593 8593 8593 8595 8595 8595 8595 8595 8595 8614 8631 8631 8631 8631 8631
8200 8200 8333 8364 8373 8373 8456 8456 8481 8482 8482 8482 8604 8604 8604 8604 8604 8640 8640 8640 8640 8640 8670 8670 8670 8670 8670 8670 8670 8670 8670 8670 8670 8670 8670 8670 8670 8670 8670 8670
7474 8271 8280 8400 8400 8422 8443 8473 8473 8482 8515 8515 8515 8516 8516 8594 8594 8594 8594 8594 8594 8594 8657 8657 8679 8679 8679 8679 8679 8679 8679 8679 8679 8679 8679 8679 8679 8679 8679 8679
7586 8064 8172 8278 8297 8340 8485 8485 8485 8485 8485 8499 8499 8519 8519 8519 8552 8583 8583 8583 8583 8583 8583 8592 8601 8601 8601 8602 8602 8622 8622 8624 8624 8624 8624 8624 8624 8624 8624 8624
7665 8026 8247 8254 8342 8358 8416 8514 8523 8523 8565 8565 8565 8565 8565 8565 8565 8586 8586 8586 8586 8586 8589 8609 8609 8609 8609 8609 8609 8609 8624 8624 8624 8624 8648 8648 8648 8648 8648 8648
7485 8093 8337 8337 8339 8339 8432 8432 8481 8481 8481 8482 8523 8523 8625 8625 8633 8633 8633 8633 8633 8633 8633 8633 8633 8678 8678 8678 8678 8678 8678 8678 8678 8678 8678 8678 8678 8678 8678 8704
7684 8287 8335 8413 8413 8413 8425 8425 8425 8460 8480 8509 8509 8515 8535 8535 8535 8589 8589 8589 8589 8589 8589 8589 8589 8589 8589 8589 8589 8589 8589 8591 8617 8617 8617 8617 8617 8617 8617 8617
7766 8175 8224 8341 8341 8421 8421 8450 8450 8519 8519 8534 8534 8558 8558 8577 8586 8586 8586 8586 8586 8586 8586 8603 8603 8652 8652 8652 8652 8652 8652 8652 8652 8652 8652 8652 8652 8652 8652 8652
7857 8175 8183 8288 8444 8444 8486 8538 8538 8538 8538 8582 8582 8582 8582 8582 8649 8649 8649 8649 8649 8649 8649 8649 8649 8649 8649 8649 8649 8649 8649 8649 8649 8649 8649 8649 8649 8649 8649 8649
7813 8136 8140 8303 8342 8342 8469 8504 8504 8504 8522 8522 8557 8557 8557 8557 8557 8637 8637 8637 8637 8637 8637 8637 8637 8649 8649 8663 8663 8663 8663 8663 8663 8663 8663 8663 8663 8663 8663 8663
7593 8245 8291 8416 8416 8416 8459 8459 8482 8526 8565 8565 8565 8596 8596 8596 8596 8596 8607 8607 8607 8607 8607 8630 8630 8630 8630 8630 8630 8630 8630 8660 8660 8660 8660 8660 8660 8660 8660 8660
7643 8095 8195 8276 8307 8334 8362 8476 8476 8486 8591 8591 8591 8591 8591 8591 8612 8612 8612 8612 8612 8612 8612 8612 8612 8612 8612 8612 8620 8620 8636 8636 8636 8636 8636 8636 8663 8663 8663 8663
7912 8155 8240 8304 8364 8369 8432 8432 8450 8460 8481 8481 8554 8554 8589 8589 8589 8589 8589 8589 8589 8589 8605 8605 8641 8641 8641 8641 8641 8641 8641 8641 8641 8641 8641 8641 8641 8664 8664 8664
7424 8260 8369 8453 8453 8453 8472 8551 8551 8551 8551 8551 8551 8644 8644 8644 8644 8644 8644 8644 8644 8661 8661 8661 8661 8661 8661 8661 8661 8661 8661 8661 8661 8661 8661 8661 8661 8667 8667 8667
7803 8257 8257 8279 8315 8355 8392 8472 8472 8551 8551 8585 8585 8585 8585 8585 8585 8585 8585 8585 8594 8594 8594 8594 8594 8594 8604 8621 8621 8654 8654 8654 8654 8654 8654 8654 8654 8654 8654 8654
7427 8062 8342 8342 8446 8454 8454 8454 8463 8507 8518 8518 8553 8569 8603 8603 8603 8603 8603 8603 8603 8603 8603 8603 8603 8618 8618 8618 8618 8618 8618 8638 8638 8638 8638 8638 8638 8638 8638 8638
7764 8100 8214 8317 8317 8328 8384 8563 8563 8563 8563 8563 8563 8563 8563 8563 8569 8569 8569 8569 8569 8569 8608 8608 8608 8629 8629 8629 8629 8632 8632 8632 8632 8632 8632 8643 8643 8643 8682 8682
7824 8095 8320 8416 8416 8481 8481 8481 8522 8522 8531 8531 8549 8549 8549 8549 8564 8606 8606 8606 8606 8606 8649 8649 8649 8649 8649 8649 8649 8649 8649 8649 8667 8667 8667 8667 8667 8667 8667 8667
7901 8326 8326 8418 8418 8422 8445 8508 8511 8553 8553 8553 8553 8581 8588 8588 8594 8594 8616 8616 8616 8616 8637 8637 8660 8660 8660 8667 8667 8667 8667 8667 8667 8667 8667 8667 8667 8667 8677 8677
7297 8231 8274 8356 8391 8391 8407 8458 8458 8504 8529 8529 8529 8558 8558 8558 8558 8603 8603 8603 8603 8603 8603 8638 8638 8663 8663 8663 8663 8663 8663 8663 8663 8663 8663 8663 8663 8663 8663 8663
8070 8258 8346 8381 8428 8428 8436 8501 8501 8501 8503 8503 8503 8525 8531 8572 8572 8572 8598 8598 8598 8598 8601 8601 8607 8607 8607 8607 8607 8608 8608 8608 8610 8635 8638 8638 8638 8638 8638 8651
8130 8358 8358 8402 8402 8447 8550 8550 8550 8581 8581 8581 8581 8581 8581 8581 8581 8581 8581 8613 8613 8613 8613 8613 8613 8613 8624 8635 8635 8635 8635 8635 8638 8639 8639 8639 8639 8639 8639 8639
7576 8239 8316 8410 8426 8571 8571 8571 8571 8571 8571 8586 8590 8590 8590 8590 8593 8613 8613 8622 8670 8670 8670 8670 8670 8670 8701 8701 8701 8701 8701 8701 8701 8701 8701 8701 8701 8701 8701 8701
7571 8029 8231 8301 8410 8425 8461 8500 8500 8500 8500 8543 8543 8568 8622 8622 8622 8622 8622 8622 8622 8622 8622 8622 8622 8622 8622 8622 8622 8622 8622 8622 8632 8644 8654 8654 8654 8654 8654 8654
8250 8358 8488 8488 8491 8521 8521 8531 8531 8531 8531 8531 8531 8531 8553 8553 8579 8579 8579 8579 8579 8579 8619 8619 8619 8619 8619 8619 8644 8644 8644 8644 8644 8644 8644 8644 8644 8648 8648 8648
7853 8305 8415 8415 8415 8432 8483 8483 8483 8498 8498 8498 8534 8534 8534 8534 8547 8547 8572 8572 8572 8572 8588 8588 8588 8588 8588 8588 8588 8588 8604 8604 8604 8604 8604 8604 8663 8663 8663 8667

